Grasp exp. instance_n_15_m_5_id_4.lp tipoLifted 0 szPool 5 nIteration 100 alpha 0.2 
Academic license - for non-commercial use only
Read LP format model from file ../input/instancesGenerated/instance_n_15_m_5_id_4.lp
Reading time = 0.00 seconds
: 5 rows, 15 columns, 75 nonzeros
Optimize a model with 5 rows, 15 columns and 75 nonzeros
Variable types: 0 continuous, 15 integer (15 binary)
Coefficient statistics:
  Matrix range     [1e+00, 1e+01]
  Objective range  [1e+00, 1e+01]
  Bounds range     [1e+00, 1e+00]
  RHS range        [3e+01, 4e+01]
Found heuristic solution: objective 41.0000000

Explored 0 nodes (0 simplex iterations) in 0.00 seconds
Thread count was 1 (of 8 available processors)

Solution count 1: 41 
No other solutions better than 0

Solution limit reached
Best objective 4.100000000000e+01, best bound -, gap -
C_1:	 7.00 x_1  = 0.769921 + 4.00 x_2  = 0.000000 + 7.00 x_3  = 0.000000 + 3.00 x_4  = 0.825006 + 1.00 x_5  = 0.000000 + 3.00 x_6  = 1.000000 + 3.00 x_7  = 1.000000 + 9.00 x_8  = 0.000000 + 2.00 x_9  = 0.169101 + 2.00 x_10  = 1.000000 + 10.00 x_11  = 0.000000 + 2.00 x_12  = 0.404817 + 5.00 x_13  = 1.000000 + 6.00 x_14  = 1.000000 + 5.00 x_15  = 1.000000 <= 34.00
C_2:	 6.00 x_1  = 0.769921 + 3.00 x_2  = 0.000000 + 3.00 x_3  = 0.000000 + 3.00 x_4  = 0.825006 + 2.00 x_5  = 0.000000 + 5.00 x_6  = 1.000000 + 3.00 x_7  = 1.000000 + 6.00 x_8  = 0.000000 + 10.00 x_9  = 0.169101 + 4.00 x_10  = 1.000000 + 2.00 x_11  = 0.000000 + 3.00 x_12  = 0.404817 + 2.00 x_13  = 1.000000 + 2.00 x_14  = 1.000000 + 1.00 x_15  = 1.000000 <= 27.00
C_3:	 9.00 x_1  = 0.769921 + 8.00 x_2  = 0.000000 + 6.00 x_3  = 0.000000 + 7.00 x_4  = 0.825006 + 1.00 x_5  = 0.000000 + 6.00 x_6  = 1.000000 + 1.00 x_7  = 1.000000 + 5.00 x_8  = 0.000000 + 4.00 x_9  = 0.169101 + 4.00 x_10  = 1.000000 + 6.00 x_11  = 0.000000 + 4.00 x_12  = 0.404817 + 5.00 x_13  = 1.000000 + 3.00 x_14  = 1.000000 + 1.00 x_15  = 1.000000 <= 35.00
C_4:	 2.00 x_1  = 0.769921 + 8.00 x_2  = 0.000000 + 6.00 x_3  = 0.000000 + 6.00 x_4  = 0.825006 + 2.00 x_5  = 0.000000 + 7.00 x_6  = 1.000000 + 2.00 x_7  = 1.000000 + 4.00 x_8  = 0.000000 + 4.00 x_9  = 0.169101 + 1.00 x_10  = 1.000000 + 8.00 x_11  = 0.000000 + 7.00 x_12  = 0.404817 + 6.00 x_13  = 1.000000 + 1.00 x_14  = 1.000000 + 9.00 x_15  = 1.000000 <= 36.00
C_5:	 6.00 x_1  = 0.769921 + 9.00 x_2  = 0.000000 + 6.00 x_3  = 0.000000 + 1.00 x_4  = 0.825006 + 7.00 x_5  = 0.000000 + 8.00 x_6  = 1.000000 + 6.00 x_7  = 1.000000 + 8.00 x_8  = 0.000000 + 3.00 x_9  = 0.169101 + 1.00 x_10  = 1.000000 + 1.00 x_11  = 0.000000 + 10.00 x_12  = 0.404817 + 6.00 x_13  = 1.000000 + 8.00 x_14  = 1.000000 + 2.00 x_15  = 1.000000 <= 41.00
Solution initial: 59.863951 
Number Constraints Used in Cover:5
GRASP Method!
Number cuts repeat: 0
value: 59.863951
Number Constraints Used in Cover:9
GRASP Method!
Number cuts repeat: 0
value: 59.863951
Number Constraints Used in Cover:17
GRASP Method!
Number cuts repeat: 0
value: 59.863951
Number Constraints Used in Cover:30
GRASP Method!
Number cuts repeat: 0
value: 59.863951
Number Constraints Used in Cover:39
GRASP Method!
Number cuts repeat: 0
value: 59.863951
Number Constraints Used in Cover:51
GRASP Method!
Number cuts repeat: 0
value: 59.863951
Number Constraints Used in Cover:63
GRASP Method!
Number cuts repeat: 0
value: 59.863951
Number Constraints Used in Cover:71
GRASP Method!
Number cuts repeat: 0
value: 59.863951
Number Constraints Used in Cover:74
GRASP Method!
Number cuts repeat: 0
value: 59.863951
Number Constraints Used in Cover:80
GRASP Method!
Number cuts repeat: 0
value: 59.863951
Number Constraints Used in Cover:91
GRASP Method!
Number cuts repeat: 0
value: 59.863951
Number Constraints Used in Cover:101
GRASP Method!
Number cuts repeat: 0
value: 59.863951
Number Constraints Used in Cover:112
GRASP Method!
Number cuts repeat: 0
value: 59.863951
Number Constraints Used in Cover:121
GRASP Method!
Number cuts repeat: 0
value: 59.863951
Number Constraints Used in Cover:124
GRASP Method!
Number cuts repeat: 0
value: 59.863951
Number Constraints Used in Cover:124
GRASP Method!
Number cuts repeat: 0
value: 59.863951
Number Constraints Used in Cover:124
GRASP Method!
Number cuts repeat: 0
value: 59.863951
Number Constraints Used in Cover:126
GRASP Method!
Number cuts repeat: 0
value: 59.863951
Number Constraints Used in Cover:131
GRASP Method!
Number cuts repeat: 0
value: 59.863951
Number Constraints Used in Cover:135
GRASP Method!
Number cuts repeat: 0
value: 59.863951
Number Constraints Used in Cover:144
GRASP Method!
Number cuts repeat: 0
value: 59.863951
Number Constraints Used in Cover:155
GRASP Method!
Number cuts repeat: 0
value: 59.863951
Number Constraints Used in Cover:161
GRASP Method!
Number cuts repeat: 0
value: 59.863951
Number Constraints Used in Cover:174
GRASP Method!
Number cuts repeat: 0
value: 59.863951
Number Constraints Used in Cover:182
GRASP Method!
Number cuts repeat: 0
value: 59.863951
Number Constraints Used in Cover:183
GRASP Method!
Number cuts repeat: 0
value: 59.863951
Number Constraints Used in Cover:189
GRASP Method!
Number cuts repeat: 0
value: 59.863951
Number Constraints Used in Cover:191
GRASP Method!
Number cuts repeat: 0
value: 59.863951
Number Constraints Used in Cover:195
GRASP Method!
Number cuts repeat: 0
value: 59.863951
Number Constraints Used in Cover:204
GRASP Method!
Number cuts repeat: 0
value: 59.863951
Number Constraints Used in Cover:210
GRASP Method!
Number cuts repeat: 0
value: 59.863951
Number Constraints Used in Cover:215
GRASP Method!
Number cuts repeat: 0
value: 59.863951
Number Constraints Used in Cover:226
GRASP Method!
Number cuts repeat: 0
value: 59.863951
Number Constraints Used in Cover:234
GRASP Method!
Number cuts repeat: 0
value: 59.863951
Number Constraints Used in Cover:245
GRASP Method!
Number cuts repeat: 0
value: 59.863951
Number Constraints Used in Cover:255
GRASP Method!
Number cuts repeat: 0
value: 59.863951
Number Constraints Used in Cover:264
GRASP Method!
Number cuts repeat: 0
value: 59.863951
Number Constraints Used in Cover:271
GRASP Method!
Number cuts repeat: 0
value: 59.863951
Number Constraints Used in Cover:281
GRASP Method!
Number cuts repeat: 0
value: 59.863951
Number Constraints Used in Cover:284
GRASP Method!
Number cuts repeat: 0
value: 59.863951
Number Constraints Used in Cover:291
GRASP Method!
Number cuts repeat: 0
value: 59.863951
Number Constraints Used in Cover:296
GRASP Method!
Number cuts repeat: 0
value: 59.863951
Number Constraints Used in Cover:301
GRASP Method!
Number cuts repeat: 0
value: 59.863951
Number Constraints Used in Cover:307
GRASP Method!
Number cuts repeat: 0
value: 59.863951
Number Constraints Used in Cover:308
GRASP Method!
Number cuts repeat: 0
value: 59.863951
Number Constraints Used in Cover:316
GRASP Method!
Number cuts repeat: 0
value: 59.863951
Number Constraints Used in Cover:322
GRASP Method!
Number cuts repeat: 0
value: 59.863951
Number Constraints Used in Cover:331
GRASP Method!
Number cuts repeat: 0
value: 59.863951
Number Constraints Used in Cover:337
GRASP Method!
Number cuts repeat: 0
value: 59.863951
Number Constraints Used in Cover:343
GRASP Method!
Number cuts repeat: 0
value: 59.863951
Number Constraints Used in Cover:348
GRASP Method!
Number cuts repeat: 0
value: 59.863951
Number Constraints Used in Cover:356
GRASP Method!
Number cuts repeat: 0
value: 59.863951
Number Constraints Used in Cover:364
GRASP Method!
Number cuts repeat: 0
value: 59.863951
Number Constraints Used in Cover:368
GRASP Method!
Number cuts repeat: 0
value: 59.863951
Number Constraints Used in Cover:374
GRASP Method!
Number cuts repeat: 0
value: 59.863951
Number Constraints Used in Cover:377
GRASP Method!
Number cuts repeat: 0
value: 59.863951
Number Constraints Used in Cover:385
GRASP Method!
Number cuts repeat: 0
value: 59.863951
Number Constraints Used in Cover:387
GRASP Method!
Number cuts repeat: 0
value: 59.863951
Number Constraints Used in Cover:390
GRASP Method!
Number cuts repeat: 0
value: 59.863951
Number Constraints Used in Cover:395
GRASP Method!
Number cuts repeat: 0
value: 59.863951
Number Constraints Used in Cover:404
GRASP Method!
Number cuts repeat: 0
value: 59.863951
Number Constraints Used in Cover:414
GRASP Method!
Number cuts repeat: 0
value: 59.863951
Number Constraints Used in Cover:421
GRASP Method!
Number cuts repeat: 0
value: 59.863951
Number Constraints Used in Cover:426
GRASP Method!
Number cuts repeat: 0
value: 59.863951
Number Constraints Used in Cover:432
GRASP Method!
Number cuts repeat: 0
value: 59.863951
Number Constraints Used in Cover:437
GRASP Method!
Number cuts repeat: 0
value: 59.863951
Number Constraints Used in Cover:446
GRASP Method!
Number cuts repeat: 0
value: 59.863951
Number Constraints Used in Cover:457
GRASP Method!
Number cuts repeat: 0
value: 59.863951
Number Constraints Used in Cover:465
GRASP Method!
Number cuts repeat: 0
value: 59.863951
Number Constraints Used in Cover:471
GRASP Method!
Number cuts repeat: 0
value: 59.863951
Number Constraints Used in Cover:480
GRASP Method!
Number cuts repeat: 0
value: 59.863951
Number Constraints Used in Cover:494
GRASP Method!
Number cuts repeat: 0
value: 59.863951
Number Constraints Used in Cover:508
GRASP Method!
Number cuts repeat: 0
value: 59.863951
Number Constraints Used in Cover:513
GRASP Method!
Number cuts repeat: 0
value: 59.863951
Number Constraints Used in Cover:523
GRASP Method!
Number cuts repeat: 0
value: 59.863951
Number Constraints Used in Cover:533
GRASP Method!
Number cuts repeat: 0
value: 59.863951
Number Constraints Used in Cover:549
GRASP Method!
Number cuts repeat: 0
value: 59.863951
Number Constraints Used in Cover:552
GRASP Method!
Number cuts repeat: 0
value: 59.863951
Number Constraints Used in Cover:561
GRASP Method!
Number cuts repeat: 0
value: 59.863951
Number Constraints Used in Cover:565
GRASP Method!
Number cuts repeat: 0
value: 59.863951
Number Constraints Used in Cover:575
GRASP Method!
Number cuts repeat: 0
value: 59.863951
Number Constraints Used in Cover:587
GRASP Method!
Number cuts repeat: 0
value: 59.863951
Number Constraints Used in Cover:592
GRASP Method!
Number cuts repeat: 0
value: 59.863951
Number Constraints Used in Cover:595
GRASP Method!
Number cuts repeat: 0
value: 59.863951
Number Constraints Used in Cover:603
GRASP Method!
Number cuts repeat: 0
value: 59.863951
Number Constraints Used in Cover:609
GRASP Method!
Number cuts repeat: 0
value: 59.863951
Number Constraints Used in Cover:619
GRASP Method!
Number cuts repeat: 0
value: 59.863951
Number Constraints Used in Cover:630
GRASP Method!
Number cuts repeat: 0
value: 59.863951
Number Constraints Used in Cover:636
GRASP Method!
Number cuts repeat: 0
value: 59.863951
Number Constraints Used in Cover:643
GRASP Method!
Number cuts repeat: 0
value: 59.863951
Number Constraints Used in Cover:651
GRASP Method!
Number cuts repeat: 0
value: 59.863951
Number Constraints Used in Cover:652
GRASP Method!
Number cuts repeat: 0
value: 59.863951
Number Constraints Used in Cover:658
GRASP Method!
Number cuts repeat: 0
value: 59.863951
Number Constraints Used in Cover:662
GRASP Method!
Number cuts repeat: 0
value: 59.863951
Number Constraints Used in Cover:668
GRASP Method!
Number cuts repeat: 0
value: 59.863951
Number Constraints Used in Cover:674
GRASP Method!
Number cuts repeat: 0
value: 59.863951
Number Constraints Used in Cover:682
GRASP Method!
Number cuts repeat: 0
value: 59.863951
Number Constraints Used in Cover:689
GRASP Method!
Number cuts repeat: 0
value: 59.863951
Number Constraints Used in Cover:698
GRASP Method!
Number cuts repeat: 0
value: 59.863951
Number Constraints Used in Cover:699
GRASP Method!
Number cuts repeat: 0
value: 59.863951
Number Constraints Used in Cover:707
GRASP Method!
Number cuts repeat: 0
value: 59.863951
Number Constraints Used in Cover:712
GRASP Method!
Number cuts repeat: 0
value: 59.863951
Number Constraints Used in Cover:723
GRASP Method!
Number cuts repeat: 0
value: 59.863951
Number Constraints Used in Cover:729
GRASP Method!
Number cuts repeat: 0
value: 59.863951
Number Cuts Final: 729
